NAME
ROWS
 N  OBJ
 L  c2
 E  c1a
 E  c1b
 E  c1c
COLUMNS
    x2        c1b       1
    x2        OBJ       -2
    x3        c1c       1
    x3        OBJ       -1
    x1        c1a       1
    x4        c1b       -1
    x5        c1c       -1
RHS
    rhs       c2        0
    rhs       c1a       1
    rhs       c1b       0
    rhs       c1c       0
RANGES
BOUNDS
 FR bounds    x2
 FR bounds    x3
 LO bounds    x1        0
 PL bounds    x1
 FR bounds    x4
 FR bounds    x5
QCMATRIX   c2
    x1        x1        -1
    x4        x4        1
    x5        x5        1
ENDATA
